
n_res = 8;
rcap = [132, 141, 137, 138, 863, 929, 801, 889];
rtype = [1, 1, 1, 1, 2, 2, 2, 2];
n_tasks = 50;
modes =  [{1, 2, 3}, {4, 5, 6}, {7, 8, 9}, {10, 11, 12}, {13, 14, 15}, {16, 17, 18}, {19, 20, 21}, {22, 23, 24}, {25, 26, 27}, {28, 29, 30}, {31, 32, 33}, {34, 35, 36}, {37, 38, 39}, {40, 41, 42}, {43, 44, 45}, {46, 47, 48}, {49, 50, 51}, {52, 53, 54}, {55, 56, 57}, {58, 59, 60}, {61, 62, 63}, {64, 65, 66}, {67, 68, 69}, {70, 71, 72}, {73, 74, 75}, {76, 77, 78}, {79, 80, 81}, {82, 83, 84}, {85, 86, 87}, {88, 89, 90}, {91, 92, 93}, {94, 95, 96}, {97, 98, 99}, {100, 101, 102}, {103, 104, 105}, {106, 107, 108}, {109, 110, 111}, {112, 113, 114}, {115, 116, 117}, {118, 119, 120}, {121, 122, 123}, {124, 125, 126}, {127, 128, 129}, {130, 131, 132}, {133, 134, 135}, {136, 137, 138}, {139, 140, 141}, {142, 143, 144}, {145, 146, 147}, {148, 149, 150}];
succ =  [{31, 27, 26, 23, 21, 16, 13, 12, 11}, {31, 28, 26, 24, 19, 16, 9}, {31, 27, 26, 23, 21, 19, 16, 13, 11}, {26, 16, 11, 7}, {31, 24, 16, 13, 11}, {31, 24, 23, 11}, {35, 31, 28, 24, 23, 17, 13}, {39, 31, 28, 24, 23, 20, 18}, {27, 25, 23, 20, 18, 17}, {37, 35, 34, 33, 29, 24, 23}, {38, 35, 33, 28, 17}, {30, 28, 24, 17}, {44, 39, 38, 34, 32, 30, 29, 25}, {39, 35, 32, 31, 24}, {44, 35, 34, 32, 29, 25}, {44, 43, 39, 37, 35, 34, 30, 29}, {50, 43, 39, 37, 36, 34, 32, 29}, {44, 43, 34, 33, 32, 29}, {34, 32, 29, 25}, {43, 42, 38, 36, 35, 32, 30}, {50, 40, 39, 37, 36, 34, 29}, {50, 40, 37, 36, 32, 31}, {44, 43, 42, 38, 32, 30}, {25}, {50, 49, 46, 43, 41, 40, 36}, {50, 48, 43, 41, 40, 34}, {44, 32, 30}, {50, 48, 42, 34}, {49, 48, 47, 46, 42, 41}, {50, 49, 48, 47, 41}, {41, 34}, {48, 47, 46, 41}, {50, 41, 40}, {49, 47, 46, 45}, {50, 48, 47, 46}, {48, 47, 45}, {48, 47, 46}, {46, 41}, {46, 45}, {42}, {45}, {45}, {45}, {45}, {}, {}, {}, {}, {}, {}];
n_opt = 150;
dur = [3, 23, 29, 2, 20, 30, 1, 11, 28, 15, 21, 28, 17, 26, 27, 2, 29, 30, 11, 14, 15, 4, 7, 12, 4, 16, 27, 2, 17, 25, 15, 16, 28, 7, 8, 27, 18, 23, 28, 11, 12, 27, 9, 20, 23, 10, 26, 29, 7, 18, 30, 4, 11, 17, 3, 8, 18, 5, 28, 30, 6, 20, 24, 23, 26, 29, 15, 19, 22, 2, 10, 14, 4, 12, 18, 6, 16, 24, 3, 11, 16, 3, 23, 28, 13, 27, 28, 12, 14, 25, 2, 25, 26, 18, 23, 28, 4, 9, 22, 5, 21, 24, 15, 24, 28, 3, 6, 14, 7, 12, 17, 1, 7, 13, 8, 23, 27, 1, 5, 18, 7, 14, 22, 3, 4, 9, 4, 10, 20, 4, 19, 28, 8, 11, 27, 7, 16, 26, 1, 7, 14, 4, 9, 24, 10, 18, 24, 8, 20, 29];
rreq = [|4, 4, 4, 4, 4, 3, 2, 2, 2, 3, 2, 1, 4, 4, 4, 5, 4, 4, 2, 1, 1, 5, 5, 5, 2, 1, 1, 3, 2, 2, 3, 3, 3, 2, 1, 1, 3, 2, 2, 2, 2, 1, 4, 4, 3, 3, 3, 3, 4, 4, 4, 2, 2, 2, 3, 2, 1, 3, 2, 2, 1, 1, 1, 3, 3, 2, 1, 1, 1, 2, 2, 2, 1, 1, 1, 5, 2, 1, 3, 2, 1, 4, 3, 2, 3, 3, 3, 3, 2, 1, 3, 3, 3, 3, 1, 1, 5, 4, 4, 5, 2, 2, 1, 1, 1, 4, 4, 4, 2, 2, 2, 4, 4, 4, 2, 2, 2, 3, 2, 1, 3, 3, 3, 1, 1, 1, 3, 2, 2, 2, 2, 2, 5, 3, 3, 4, 3, 2, 4, 2, 2, 4, 2, 2, 1, 1, 1, 4, 3, 2
 |4, 3, 2, 3, 1, 1, 1, 1, 1, 2, 2, 2, 5, 5, 5, 3, 2, 2, 5, 2, 2, 4, 3, 3, 5, 3, 3, 2, 2, 1, 5, 3, 3, 3, 2, 2, 3, 2, 2, 1, 1, 1, 3, 3, 3, 1, 1, 1, 3, 3, 3, 1, 1, 1, 4, 3, 3, 4, 4, 4, 3, 3, 2, 4, 3, 1, 3, 3, 2, 4, 3, 2, 5, 5, 5, 5, 3, 3, 4, 3, 2, 2, 2, 2, 5, 4, 4, 5, 5, 5, 5, 4, 3, 5, 3, 3, 2, 1, 1, 5, 3, 3, 4, 4, 4, 4, 2, 2, 1, 1, 1, 3, 3, 3, 4, 4, 4, 2, 2, 2, 2, 1, 1, 5, 4, 3, 4, 3, 3, 2, 2, 2, 3, 2, 2, 3, 3, 3, 2, 1, 1, 1, 1, 1, 5, 4, 4, 2, 2, 1
 |3, 3, 3, 4, 3, 3, 5, 3, 1, 3, 3, 3, 3, 3, 2, 4, 3, 3, 4, 3, 2, 4, 3, 2, 1, 1, 1, 3, 2, 2, 4, 4, 4, 3, 3, 3, 2, 2, 2, 4, 3, 2, 4, 2, 2, 4, 3, 1, 2, 2, 2, 1, 1, 1, 2, 1, 1, 4, 3, 3, 4, 2, 2, 3, 3, 1, 5, 4, 4, 3, 2, 2, 5, 5, 5, 3, 3, 1, 5, 4, 4, 4, 3, 1, 1, 1, 1, 4, 4, 3, 4, 2, 2, 3, 3, 3, 2, 1, 1, 5, 4, 4, 4, 3, 3, 2, 2, 2, 3, 2, 2, 5, 3, 2, 3, 2, 2, 3, 2, 1, 4, 3, 3, 5, 4, 3, 3, 2, 2, 4, 4, 4, 3, 3, 3, 4, 3, 3, 4, 3, 1, 2, 1, 1, 4, 3, 3, 2, 2, 2
 |5, 3, 3, 1, 1, 1, 2, 2, 2, 1, 1, 1, 5, 2, 2, 5, 3, 2, 3, 2, 1, 3, 3, 3, 2, 1, 1, 5, 3, 3, 3, 3, 3, 5, 5, 5, 3, 2, 1, 3, 2, 2, 4, 3, 3, 3, 3, 3, 4, 4, 4, 5, 3, 3, 2, 1, 1, 4, 4, 3, 3, 1, 1, 3, 3, 3, 2, 2, 2, 4, 2, 1, 5, 3, 3, 3, 1, 1, 4, 2, 2, 5, 5, 5, 3, 3, 3, 4, 3, 1, 4, 4, 2, 2, 1, 1, 3, 2, 2, 1, 1, 1, 1, 1, 1, 1, 1, 1, 3, 1, 1, 2, 2, 2, 1, 1, 1, 3, 2, 2, 3, 3, 2, 2, 2, 1, 2, 2, 1, 5, 3, 3, 4, 3, 3, 5, 2, 1, 3, 3, 3, 1, 1, 1, 3, 2, 2, 4, 2, 2
 |1, 1, 1, 29, 29, 29, 25, 17, 16, 23, 15, 11, 8, 7, 3, 26, 26, 24, 18, 17, 16, 23, 20, 18, 14, 10, 9, 25, 22, 21, 22, 19, 16, 18, 18, 17, 25, 21, 16, 21, 20, 15, 15, 9, 7, 8, 7, 6, 18, 11, 6, 18, 17, 17, 27, 25, 22, 28, 27, 27, 21, 18, 12, 11, 10, 3, 22, 22, 22, 14, 10, 6, 22, 19, 18, 8, 6, 3, 28, 23, 20, 27, 27, 26, 28, 27, 27, 17, 13, 10, 14, 14, 12, 2, 2, 2, 20, 14, 8, 25, 22, 21, 17, 17, 14, 7, 6, 4, 12, 12, 10, 21, 14, 8, 28, 25, 22, 6, 6, 4, 24, 22, 19, 27, 22, 21, 10, 9, 5, 19, 18, 18, 13, 10, 8, 23, 17, 11, 26, 22, 18, 19, 16, 7, 3, 3, 3, 23, 15, 9
 |25, 18, 14, 23, 21, 15, 28, 27, 26, 13, 11, 10, 19, 19, 19, 14, 13, 13, 28, 26, 25, 24, 23, 19, 22, 16, 9, 21, 18, 7, 29, 16, 11, 20, 12, 6, 11, 9, 6, 18, 15, 14, 27, 27, 27, 27, 24, 18, 13, 12, 12, 26, 23, 20, 10, 10, 7, 24, 24, 24, 25, 11, 3, 15, 11, 6, 25, 21, 21, 24, 20, 16, 28, 22, 22, 20, 8, 2, 21, 20, 20, 14, 13, 12, 25, 12, 9, 23, 17, 16, 21, 18, 14, 7, 7, 4, 13, 13, 10, 18, 17, 17, 27, 24, 20, 11, 6, 5, 10, 8, 7, 27, 14, 9, 26, 25, 25, 13, 8, 5, 25, 24, 20, 27, 21, 16, 26, 21, 12, 16, 14, 14, 28, 20, 16, 22, 17, 5, 16, 16, 12, 19, 19, 18, 9, 4, 2, 14, 10, 5
 |23, 21, 18, 24, 17, 13, 13, 10, 3, 4, 3, 3, 3, 2, 2, 13, 11, 10, 25, 24, 21, 27, 27, 27, 25, 21, 12, 15, 11, 5, 12, 7, 3, 6, 6, 4, 5, 5, 5, 23, 17, 13, 11, 9, 6, 17, 15, 15, 8, 5, 4, 18, 15, 5, 12, 9, 8, 29, 27, 27, 28, 25, 25, 22, 20, 18, 26, 25, 23, 7, 3, 1, 9, 7, 4, 3, 2, 2, 21, 17, 13, 23, 19, 10, 15, 13, 7, 23, 22, 21, 11, 8, 8, 19, 16, 12, 28, 27, 26, 10, 10, 10, 17, 13, 9, 14, 10, 6, 14, 10, 8, 11, 9, 8, 21, 19, 15, 19, 18, 17, 20, 18, 17, 20, 13, 7, 26, 18, 11, 28, 26, 26, 21, 13, 5, 20, 13, 8, 28, 28, 25, 20, 16, 10, 24, 16, 5, 18, 13, 8
 |20, 14, 12, 12, 11, 9, 16, 12, 8, 16, 9, 4, 19, 19, 18, 29, 27, 26, 23, 22, 21, 16, 16, 15, 12, 10, 6, 28, 27, 24, 13, 9, 4, 16, 12, 5, 25, 25, 21, 12, 11, 9, 15, 13, 9, 7, 7, 7, 29, 21, 10, 23, 16, 12, 19, 11, 3, 9, 9, 7, 30, 27, 26, 24, 20, 20, 12, 8, 8, 16, 13, 12, 23, 22, 22, 21, 15, 6, 18, 12, 9, 15, 15, 12, 12, 11, 11, 24, 23, 22, 12, 10, 7, 18, 14, 9, 25, 22, 16, 11, 8, 6, 22, 21, 17, 25, 23, 19, 23, 18, 15, 15, 14, 9, 23, 19, 10, 20, 16, 14, 19, 13, 3, 28, 26, 23, 20, 15, 5, 28, 22, 18, 13, 12, 10, 29, 15, 11, 23, 19, 13, 25, 24, 24, 12, 11, 11, 27, 25, 23|];